p cnf 24 218
-24 -7 -1 -2 -3 -4 -19 -15 -12 -14 -23 -8 -22 -5 -6 1 2 3 4 5 6 7 8 12 13 14 15 19 22 23 24 0
-5 -12 -2 -15 -21 -18 -4 -24 2 4 5 7 8 9 10 11 12 15 16 17 18 19 20 21 22 23 24 0
 3 4 0
-22 -1 -16 -20 -13 -9 -4 -18 -3 -21 -14 1 2 3 4 5 6 7 8 9 10 11 12 13 14 15 16 17 18 19 20 21 22 23 24 0
-13 6 8 13 14 20 23 24 0
-23 -14 -3 -16 -12 -20 -15 -13 -4 -5 -17 -21 -2 -6 -1 -7 -19 -8 1 2 3 4 5 6 7 8 9 10 11 12 13 14 15 16 17 18 19 20 21 22 23 24 0
-12 1 3 4 6 7 8 9 10 11 12 16 19 20 21 0
-8 -10 -17 -9 -4 -12 -11 -18 -24 -21 -22 -16 -5 -13 -19 -2 -23 -20 1 2 3 4 5 6 7 8 9 10 11 12 13 14 15 16 17 18 19 20 21 22 23 24 0
-13 -20 -2 -4 -1 -9 -15 -8 -16 -3 -7 -23 1 2 3 4 5 7 8 9 13 15 16 17 20 22 23 0
-11 -24 2 5 7 10 11 12 13 20 24 0
-2 -12 -15 -16 -10 -1 -17 -7 -8 -19 -5 -22 -3 -23 -18 1 2 3 5 6 7 8 10 12 15 16 17 18 19 20 21 22 23 0
-1 1 3 0
-14 -18 1 5 9 13 14 15 16 18 20 24 0
-14 -5 -3 -7 -23 -22 -24 -21 -12 -18 -10 -4 -13 -8 -16 -9 -6 -15 1 2 3 4 5 6 7 8 9 10 11 12 13 14 15 16 18 19 21 22 23 24 0
-22 -24 -15 -8 -6 -23 -21 -17 -4 -2 -1 -19 -3 -12 -14 1 2 3 4 5 6 8 9 10 12 13 14 15 17 19 20 21 22 23 24 0
-7 -19 -5 -16 -15 -17 -12 5 6 7 8 10 11 12 13 15 16 17 19 21 23 0
 2 4 5 8 15 0
-5 -15 5 15 0
-9 -24 24 9 15 23 0
-17 -10 1 2 3 5 6 7 9 10 14 16 17 19 20 21 22 0
-15 -13 -2 1 2 3 4 5 6 7 8 9 10 11 12 13 14 15 16 18 19 20 21 22 23 24 0
-1 -4 1 4 7 8 12 15 16 20 21 23 24 0
-7 -5 -21 -19 -20 -22 -4 -8 -10 -14 -13 -17 -9 -18 1 3 4 5 7 8 9 10 11 12 13 14 15 16 17 18 19 20 21 22 24 0
-22 -21 -13 -6 -3 -15 1 2 3 4 5 6 7 9 11 12 13 14 15 21 22 0
 1 2 4 5 6 7 8 9 10 11 12 13 14 15 16 17 18 19 20 21 22 23 24 0
-23 6 11 14 16 21 22 23 0
-23 -10 -13 -24 -1 -14 1 2 3 4 5 7 8 9 10 11 12 13 14 15 16 17 19 20 21 22 23 24 0
-1 -17 -22 -24 -13 -19 -10 -6 1 2 3 4 6 10 12 13 17 19 20 21 22 24 0
-14 -3 -7 -1 -11 -5 -17 1 2 3 4 5 6 7 8 10 11 12 13 14 15 16 17 19 20 22 23 24 0
 1 2 3 4 5 6 7 8 9 10 11 12 13 14 15 16 17 18 19 20 21 22 23 24 0
-6 -17 -16 -22 -13 -23 1 6 7 8 13 14 16 17 22 23 0
-5 -11 -1 -18 -8 -7 -21 1 5 7 8 11 17 18 20 21 0
 3 7 10 11 17 19 21 23 0
-23 -3 -12 -7 -8 -10 -21 -19 -16 -22 -5 -13 -11 -2 -1 1 2 3 5 7 8 10 11 12 13 16 19 21 22 23 0
-11 -14 -13 -10 -3 -15 2 3 10 11 12 13 14 15 20 0
-10 -16 -23 -15 -2 -1 -9 1 2 9 10 15 16 23 0
-11 -7 -1 -22 -14 -18 -24 -8 -2 -4 -19 -12 -20 -21 -15 -9 -10 -16 -3 -17 1 2 3 4 5 6 7 8 9 10 11 12 13 14 15 16 17 18 19 20 21 22 23 24 0
-5 -7 -12 -9 -8 3 5 7 8 9 11 12 13 15 16 17 18 20 23 0
-15 -6 -9 -17 -11 -5 -14 -21 -7 -23 1 4 5 6 7 8 9 10 11 12 14 15 17 18 20 21 22 23 24 0
-12 -7 -2 -8 2 3 5 6 7 8 9 10 11 12 19 20 21 22 0
-15 -4 4 15 0
-4 -17 1 4 5 6 7 8 9 10 11 12 13 14 16 17 18 19 21 22 23 0
 1 2 3 8 9 10 12 17 18 22 23 0
-21 -7 -24 -15 2 3 5 7 8 9 12 13 14 15 16 17 20 21 22 24 0
 15 0
 9 19 17 0
-3 -21 -10 -19 -5 -22 -18 -17 -6 -2 -16 -9 -7 -20 -8 -11 -12 -13 2 3 4 5 6 7 8 9 10 11 12 13 14 15 16 17 18 19 20 21 22 24 0
-17 -14 4 8 9 12 14 17 19 20 0
-23 -13 -4 4 13 23 0
-20 -11 -15 -19 -22 -1 1 9 10 11 15 16 19 20 22 0
-4 -18 -14 -21 -19 -15 -9 -12 -16 -5 -1 1 2 4 5 6 9 12 13 14 15 16 18 19 20 21 22 23 24 0
-8 -5 -11 -2 -24 -15 -16 1 2 3 4 5 6 8 9 10 11 13 14 15 16 17 21 22 23 24 0
-22 18 21 5 22 0
-19 -24 -13 -20 -21 -15 -4 -2 -3 -1 -12 1 2 3 4 7 12 13 15 19 20 21 23 24 0
-2 -21 2 9 13 21 22 23 0
 1 3 5 6 8 9 10 12 14 15 17 20 21 23 24 0
-1 1 19 20 7 0
 2 19 24 11 15 0
-17 -20 -7 -15 -16 -11 -18 -14 -9 -21 -3 -2 -23 1 2 3 4 5 6 7 8 9 10 11 12 13 14 15 16 17 18 19 20 21 23 24 0
-24 -5 -4 4 5 7 13 24 0
-22 -17 -9 1 2 3 4 5 6 7 9 10 11 12 13 14 16 17 18 19 20 21 22 23 24 0
-4 -2 2 4 5 6 11 12 15 17 19 22 0
-11 -1 -14 1 11 12 13 14 17 23 24 0
-7 -6 -20 -4 -15 -2 -16 -10 -21 -23 -18 -17 -13 -24 -3 2 3 4 6 7 9 10 11 12 13 14 15 16 17 18 20 21 23 24 0
-2 -9 -14 -20 -16 -3 -22 -13 -7 -21 -12 -11 -1 -23 -4 -15 -24 1 2 3 4 5 7 8 9 11 12 13 14 15 16 17 19 20 21 22 23 24 0
-1 -11 -13 -10 -16 -6 -15 -9 -14 -17 -23 -3 1 2 3 5 6 8 9 10 11 12 13 14 15 16 17 19 23 0
-15 -2 -21 -10 -11 -18 -17 2 8 10 11 12 14 15 17 18 20 21 23 0
-21 -20 3 4 5 6 7 9 10 11 12 13 14 15 16 18 20 21 22 0
-19 -7 -13 7 8 12 13 19 21 22 0
 1 3 23 22 7 24 13 0
 2 21 22 12 13 0
-6 -1 1 6 0
 19 15 0
-12 -9 -18 -7 -23 -13 -6 -11 -1 -16 -3 -17 -15 -22 -24 -4 1 2 3 4 5 6 7 8 9 10 11 12 13 14 15 16 17 18 19 20 21 22 23 24 0
-20 -3 -19 -13 1 3 4 6 7 8 9 10 11 12 13 14 15 16 17 18 19 20 21 22 23 24 0
-1 -20 -10 -23 -12 -16 -14 1 8 10 11 12 14 16 20 23 0
-14 -12 10 12 14 0
-20 -3 -15 3 4 5 8 9 15 16 17 20 23 0
-19 2 3 4 8 9 10 15 16 17 18 19 21 22 0
 4 0
-2 -15 -19 -1 -20 -16 -13 -22 -14 -6 -8 -10 1 2 6 8 10 12 13 14 15 16 19 20 21 22 0
-23 -15 -10 3 7 10 11 13 15 18 23 24 0
 1 3 4 5 8 10 11 17 18 20 21 23 0
-6 -17 -22 -15 5 6 8 9 13 14 15 16 17 19 21 22 0
-24 -14 -5 -7 -2 -11 -1 -15 -9 -23 -19 -16 1 2 3 5 7 8 9 10 11 12 13 14 15 16 18 19 23 24 0
-20 -18 -14 -10 -3 -21 -12 3 7 10 11 12 13 14 18 20 21 0
-11 -4 -13 -22 -3 -5 1 3 4 5 6 11 12 13 20 22 24 0
-7 -9 -19 -21 -4 -18 -12 -8 -13 2 4 5 7 8 9 10 12 13 14 16 18 19 21 23 0
-3 3 9 11 14 18 19 23 24 0
-19 -11 -12 -18 -2 -4 -16 -17 -20 -3 -10 -24 -9 -13 -21 -8 1 2 3 4 8 9 10 11 12 13 15 16 17 18 19 20 21 23 24 0
 1 2 3 4 5 6 7 8 9 10 11 12 13 14 15 16 17 18 19 20 21 22 23 24 0
-24 -9 -22 -14 -20 -1 -7 -19 -16 -5 -13 -2 -18 -15 -4 1 2 4 5 7 9 13 14 15 16 18 19 20 21 22 23 24 0
-7 -17 -18 -6 -23 -24 -2 -21 -12 -9 2 3 6 7 9 10 11 12 13 15 16 17 18 19 21 22 23 24 0
-14 -16 -10 -19 1 3 5 9 10 13 14 16 17 18 19 20 21 22 24 0
-16 -3 -13 1 2 3 6 10 13 16 18 19 20 21 22 23 0
-19 -4 -14 -8 -18 -22 -1 -17 -6 -15 -20 1 4 6 8 11 12 13 14 15 17 18 19 20 22 0
-1 -7 -24 -16 -12 -18 -5 -15 -4 -3 -21 -17 -23 -6 -13 1 3 4 5 6 7 12 13 15 16 17 18 21 23 24 0
-2 -10 -12 2 3 10 12 19 0
-1 -4 1 10 4 0
-18 -16 -24 -21 -10 -13 -12 -3 -15 -6 1 3 4 5 6 7 8 9 10 11 12 13 15 16 17 18 19 21 22 23 24 0
-16 16 17 0
-12 -16 -9 -13 -8 -19 -1 1 3 7 8 9 12 13 16 18 19 22 24 0
-2 -5 -24 -23 -15 2 5 15 23 24 0
-10 -23 -8 -15 -5 -1 -20 -19 -3 -24 -21 -16 -4 -14 -17 -18 1 2 3 4 5 6 8 9 10 11 12 13 14 15 16 17 18 19 20 21 22 23 24 0
-9 -1 -4 -6 1 3 4 5 6 9 23 0
-16 -6 -4 -2 2 4 6 16 21 23 0
-15 -9 -12 -7 -3 -6 -4 -17 -23 -10 -18 -8 1 3 4 6 7 8 9 10 12 15 17 18 23 0
-17 2 3 11 15 17 18 0
-3 -13 -14 -16 -19 -9 3 9 13 14 16 19 0
-14 -18 1 2 5 8 12 13 14 18 19 0
-8 -19 8 19 20 0
-23 -6 -12 -20 -19 -16 -21 -2 -11 -14 -7 -9 -10 -24 1 2 4 5 6 7 8 9 10 11 12 14 16 17 18 19 20 21 22 23 24 0
-21 -24 -18 -7 -17 -10 -4 -1 1 2 3 4 5 6 7 9 10 11 12 13 14 15 17 18 19 20 21 22 23 24 0
-9 -12 -2 -16 -22 -3 -11 -7 -18 1 2 3 4 5 7 8 9 11 12 14 15 16 18 19 21 22 24 0
-11 -10 -20 -9 -5 -17 -4 -22 -1 1 2 3 4 5 9 10 11 14 17 20 22 23 0
-5 1 5 6 9 16 24 0
-18 -7 -24 -20 -14 -9 -4 -17 -21 4 6 7 9 14 16 17 18 20 21 23 24 0
-9 -10 -8 -1 -13 -12 -11 1 8 9 10 11 12 13 18 19 20 22 23 24 0
-12 1 2 3 4 5 6 7 8 9 10 11 12 13 14 15 16 17 18 19 20 21 22 23 24 0
-15 -18 -8 -3 8 18 3 15 0
-4 -15 -1 -17 -9 -7 -6 -22 -14 -8 -5 -12 -3 1 3 4 5 6 7 8 9 10 11 12 13 14 15 17 19 21 22 23 24 0
 3 21 7 0
 1 2 3 4 5 6 7 8 10 11 12 13 15 16 17 18 19 20 21 22 23 24 0
-13 -22 -6 -21 -1 1 6 8 13 20 21 22 24 0
-10 6 10 11 21 23 24 0
-13 -22 -12 -15 -11 -7 -6 -18 1 4 5 6 7 8 11 12 13 14 15 17 18 22 24 0
-8 -10 -14 5 8 10 14 15 23 0
-12 -9 -24 -23 -2 -5 -22 -20 -15 -1 -19 -18 -14 -17 1 2 4 5 8 9 10 11 12 13 14 15 16 17 18 19 20 22 23 24 0
 1 2 3 4 5 6 7 8 10 11 12 13 14 15 16 17 18 19 20 21 22 23 24 0
 18 6 0
-10 -16 -5 -2 -23 -17 2 3 4 5 6 8 9 10 11 13 16 17 21 23 24 0
-18 18 19 0
 1 0
-16 3 6 7 8 9 10 12 13 15 16 18 19 20 21 22 23 0
 1 2 3 4 5 6 7 8 9 10 11 12 13 14 15 16 17 18 20 21 22 23 24 0
-19 -14 -20 -23 -16 -3 -1 -7 -9 -5 -18 -8 -6 -24 -2 -11 -4 -12 1 2 3 4 5 6 7 8 9 11 12 13 14 16 17 18 19 20 23 24 0
-1 -7 -2 -8 1 2 4 7 8 10 11 14 16 17 21 22 0
-3 2 3 4 7 9 10 11 12 13 16 18 19 20 22 23 0
 6 10 13 14 15 18 19 21 23 0
-3 -24 -4 -11 -14 1 2 3 4 5 6 7 9 10 11 12 13 14 15 16 17 18 20 21 22 24 0
-5 -19 -4 3 4 5 12 19 24 0
-18 11 13 14 18 19 0
 9 6 0
-24 -17 -9 -12 -16 1 4 7 9 12 13 14 16 17 20 22 24 0
 15 0
-1 -13 -15 -20 -21 -18 -19 -16 1 6 8 9 13 15 16 18 19 20 21 0
 5 7 8 9 13 17 19 20 22 24 0
-19 -6 -23 -15 -8 -5 -20 1 3 4 5 6 7 8 10 11 12 13 14 15 16 18 19 20 21 22 23 24 0
-8 -23 1 2 8 10 11 13 18 19 20 23 24 0
-6 -1 -13 -3 -18 -12 -11 -4 1 2 3 4 6 8 10 11 12 13 18 21 0
-20 -2 -19 -15 -11 -23 -18 -12 -17 -10 -13 1 2 3 4 5 6 7 8 9 10 11 12 13 14 15 17 18 19 20 22 23 0
-13 -21 -16 -4 -2 1 2 3 4 6 9 10 11 13 14 15 16 19 20 21 22 23 24 0
-8 -5 -14 -2 -6 -4 2 4 5 6 8 13 14 0
-23 -6 -1 -8 -22 -20 -7 -4 -19 -12 -10 -21 -11 -13 1 2 3 4 6 7 8 10 11 12 13 14 18 19 20 21 22 23 24 0
-13 -16 -11 -18 -19 -14 -24 -2 -22 1 2 3 4 5 6 7 8 9 10 11 12 13 14 15 16 17 18 19 20 21 22 23 24 0
-19 -20 -9 -21 -17 -23 -2 -4 -7 -1 -8 -3 -5 -24 -15 -14 -13 -22 -18 -10 -16 1 2 3 4 5 6 7 8 9 10 12 13 14 15 16 17 18 19 20 21 22 23 24 0
-1 -17 -3 -24 -2 -7 -4 -9 -15 -8 1 2 3 4 5 7 8 9 12 14 15 16 17 19 20 23 24 0
-17 -13 3 6 8 13 14 17 20 22 24 0
-8 -12 2 5 6 7 8 12 13 16 20 0
-6 -20 -21 -9 -1 -8 -4 -18 -12 -3 -10 1 3 4 6 8 9 10 12 18 20 21 23 24 0
-2 -21 -19 -4 -22 -8 -1 -6 -24 -5 -17 -16 -7 1 2 4 5 6 7 8 14 16 17 19 21 22 23 24 0
-24 -22 -12 -5 -18 -16 -1 -9 -23 -19 1 2 3 5 8 9 10 11 12 13 15 16 17 18 19 22 23 24 0
-15 -16 1 2 3 4 5 6 7 8 9 10 11 12 13 14 15 16 18 19 20 21 22 23 24 0
-4 11 4 0
-19 3 5 8 12 14 15 17 19 21 23 0
-6 -1 -23 -9 -17 -21 -7 -10 -24 -15 -20 -14 1 6 7 9 10 14 15 17 20 21 23 24 0
-21 -14 21 14 7 0
-7 -8 5 6 7 8 11 12 14 18 19 22 0
-23 -1 -13 1 20 13 23 0
-1 -12 1 5 10 12 14 17 21 22 0
-22 -21 -8 -5 -11 -17 1 3 4 5 7 8 9 10 11 12 13 14 16 17 19 20 21 22 24 0
-16 -1 -2 -12 -24 1 2 4 12 15 16 18 24 0
-24 -3 -23 -1 -21 -19 -12 1 2 3 4 5 6 7 8 9 10 11 12 13 14 15 16 17 18 19 20 21 22 23 24 0
-21 21 0
-23 7 10 13 21 23 0
 1 2 3 4 6 7 10 11 12 13 14 15 16 18 21 22 23 0
-14 -19 1 7 8 10 12 14 16 19 24 0
-10 -16 -21 -24 -18 -6 -20 -11 -1 -13 -4 -15 1 4 6 10 11 13 15 16 18 20 21 23 24 0
-16 -23 -5 -24 -12 -8 -3 -14 -18 -9 -17 -2 -20 -4 -10 2 3 4 5 6 8 9 10 12 13 14 15 16 17 18 19 20 22 23 24 0
-17 -12 -16 -18 -11 -10 -24 -20 -13 -2 -22 -21 2 7 8 9 10 11 12 13 14 16 17 18 20 21 22 24 0
 1 18 5 22 0
 12 0
-16 -13 -19 -9 -10 -4 -22 -3 -8 -11 -6 -20 -18 -23 -14 -15 -17 -5 1 3 4 5 6 7 8 9 10 11 12 13 14 15 16 17 18 19 20 22 23 24 0
-14 -9 -24 24 9 21 14 0
-10 -5 -14 -18 -9 -20 -24 -19 -15 5 9 10 14 15 16 18 19 20 23 24 0
-9 1 3 4 5 6 8 9 10 12 13 15 16 17 18 19 22 23 24 0
 3 9 10 12 14 16 18 22 0
-1 -4 -6 -11 -22 -18 -24 -23 -16 -7 -12 -20 -10 1 3 4 5 6 7 9 10 11 12 14 15 16 17 18 19 20 22 23 24 0
-18 -15 -21 7 8 10 12 14 15 16 17 18 21 24 0
-9 -5 -23 -20 -14 -18 2 4 5 9 10 14 15 17 18 19 20 21 22 23 24 0
-15 1 5 6 7 8 9 10 11 13 15 16 17 18 19 21 22 23 0
-1 -22 1 3 4 7 8 13 15 16 18 20 22 23 24 0
-1 -5 -6 -10 -23 1 5 6 9 10 11 13 16 17 18 20 23 0
-8 -23 -14 -24 -1 -4 1 2 3 4 5 6 7 8 9 10 11 12 13 14 16 17 18 19 21 22 23 24 0
-6 -20 -7 -15 -24 -5 -9 -12 -22 -16 -19 -3 -4 -23 -11 -17 -8 -14 -13 -1 -2 -10 1 2 3 4 5 6 7 8 9 10 11 12 13 14 15 16 17 18 19 20 22 23 24 0
-2 -23 -3 -24 1 2 3 4 7 9 10 12 13 14 15 16 17 18 19 22 23 24 0
 1 2 3 4 5 6 7 8 9 10 11 12 13 14 15 16 17 18 19 20 21 22 23 0
-9 -7 -22 -2 -16 -20 -1 -17 -11 -5 -18 -6 -13 -21 -12 -4 -10 -15 -24 -3 -14 -19 1 2 3 4 5 6 7 9 10 11 12 13 14 15 16 17 18 19 20 21 22 24 0
-11 -17 -19 -13 -8 -1 -3 1 3 4 8 11 12 13 14 15 16 17 19 20 21 22 23 0
 11 5 0
-18 2 3 12 14 18 24 0
-4 -24 -10 1 3 4 5 6 8 9 10 11 12 13 14 15 16 20 21 22 23 24 0
-17 -10 -7 17 10 7 0
-20 -6 -9 3 4 6 9 11 13 20 0
-22 -17 -8 -5 -9 -19 -15 -12 -24 1 2 4 5 6 7 8 9 10 11 12 15 17 18 19 20 21 22 23 24 0
-10 -16 -6 -11 -1 -17 -12 -23 -8 -15 -9 -21 -24 -3 -14 -13 -4 -7 -22 -5 -2 -20 -19 1 2 3 4 5 6 7 8 9 10 11 12 13 14 15 16 17 18 19 20 21 22 23 24 0
 1 2 3 5 6 8 13 14 15 16 18 20 23 24 0
-10 -2 -7 -5 -1 -24 -14 1 2 4 5 7 10 12 14 20 24 0
